
;this file is automatically generated: Tue Oct 27 10:34:59 CST 2020

;declarations generated

(declare-fun oclExcludes ( Int Int) Bool)
(declare-fun obj_eb653d49_d12e_44b0_8722_d337a939cd84 ( Int) Int)
(declare-fun class12_Class12BoolAttr1 ( Int) Bool)
(declare-fun class12_Class12BoolAttr0 ( Int) Bool)
(declare-fun type_9978b653_05af_4f38_934d_68e737c3d5eb_Class24 ( Int) Bool)
(declare-fun type_9978b653_05af_4f38_934d_68e737c3d5eb_Class28 ( Int) Bool)
(declare-fun Cardinality ( Int) Int)
(declare-fun type_9978b653_05af_4f38_934d_68e737c3d5eb_Class12 ( Int) Bool)
(declare-fun type_9978b653_05af_4f38_934d_68e737c3d5eb_Class14 ( Int) Bool)
(declare-fun type_9978b653_05af_4f38_934d_68e737c3d5eb_Class17 ( Int) Bool)
(declare-fun oclSelect ( Int Bool) Int)
(declare-fun type_9978b653_05af_4f38_934d_68e737c3d5eb_Class8 ( Int) Bool)
(declare-fun type_9978b653_05af_4f38_934d_68e737c3d5eb_Class4 ( Int) Bool)
(declare-fun Enum0 ( Int) Int)
(declare-fun Enum1 ( Int) Int)
(declare-fun Enum2 ( Int) Int)
(declare-fun container_ ( Int) Int)
(declare-fun oclIncludes ( Int Int) Bool)
(declare-fun ObjAt ( Int Int) Int)

;formula(s) generated
(assert (! (forall ((v Int)) (=> (and (and (and (and (and (and ( type_9978b653_05af_4f38_934d_68e737c3d5eb_Class12 v )  ( type_9978b653_05af_4f38_934d_68e737c3d5eb_Class14 v ) ) ( type_9978b653_05af_4f38_934d_68e737c3d5eb_Class24 v ) ) ( type_9978b653_05af_4f38_934d_68e737c3d5eb_Class8 v ) ) ( type_9978b653_05af_4f38_934d_68e737c3d5eb_Class17 v ) ) ( type_9978b653_05af_4f38_934d_68e737c3d5eb_Class28 v ) ) ( type_9978b653_05af_4f38_934d_68e737c3d5eb_Class4 v ) ) ( class12_Class12BoolAttr0 ( obj_eb653d49_d12e_44b0_8722_d337a939cd84 v )  ) )):named l0))
(assert (! (or (forall ((v Int)) (=> (and (and (and (and (and (and ( type_9978b653_05af_4f38_934d_68e737c3d5eb_Class12 v )  ( type_9978b653_05af_4f38_934d_68e737c3d5eb_Class14 v ) ) ( type_9978b653_05af_4f38_934d_68e737c3d5eb_Class24 v ) ) ( type_9978b653_05af_4f38_934d_68e737c3d5eb_Class8 v ) ) ( type_9978b653_05af_4f38_934d_68e737c3d5eb_Class17 v ) ) ( type_9978b653_05af_4f38_934d_68e737c3d5eb_Class28 v ) ) ( type_9978b653_05af_4f38_934d_68e737c3d5eb_Class4 v ) ) ( class12_Class12BoolAttr1 ( obj_eb653d49_d12e_44b0_8722_d337a939cd84 v )  ) )) (forall ((v Int)) (=> (and (and (and (and (and (and ( type_9978b653_05af_4f38_934d_68e737c3d5eb_Class12 v )  ( type_9978b653_05af_4f38_934d_68e737c3d5eb_Class14 v ) ) ( type_9978b653_05af_4f38_934d_68e737c3d5eb_Class24 v ) ) ( type_9978b653_05af_4f38_934d_68e737c3d5eb_Class8 v ) ) ( type_9978b653_05af_4f38_934d_68e737c3d5eb_Class17 v ) ) ( type_9978b653_05af_4f38_934d_68e737c3d5eb_Class28 v ) ) ( type_9978b653_05af_4f38_934d_68e737c3d5eb_Class4 v ) ) ( class12_Class12BoolAttr0 ( obj_eb653d49_d12e_44b0_8722_d337a939cd84 v )  ) ))):named l1))
(assert (exists ((o Int)) (and (and (and (and (and (and ( type_9978b653_05af_4f38_934d_68e737c3d5eb_Class12 ( obj_eb653d49_d12e_44b0_8722_d337a939cd84 o )  )  ( type_9978b653_05af_4f38_934d_68e737c3d5eb_Class14 ( obj_eb653d49_d12e_44b0_8722_d337a939cd84 o )  ) ) ( type_9978b653_05af_4f38_934d_68e737c3d5eb_Class24 ( obj_eb653d49_d12e_44b0_8722_d337a939cd84 o )  ) ) ( type_9978b653_05af_4f38_934d_68e737c3d5eb_Class8 ( obj_eb653d49_d12e_44b0_8722_d337a939cd84 o )  ) ) ( type_9978b653_05af_4f38_934d_68e737c3d5eb_Class17 ( obj_eb653d49_d12e_44b0_8722_d337a939cd84 o )  ) ) ( type_9978b653_05af_4f38_934d_68e737c3d5eb_Class28 ( obj_eb653d49_d12e_44b0_8722_d337a939cd84 o )  ) ) ( type_9978b653_05af_4f38_934d_68e737c3d5eb_Class4 ( obj_eb653d49_d12e_44b0_8722_d337a939cd84 o )  ) )))

 ;end of formula 